WARNING: for repeatability, setting FPU to use double precision
 -----------------------------------------------------------------------------------------------------------------------
|                                 manysat2.0    4 thread(s) on 8 core(s)                                                |
 -----------------------------------------------------------------------------------------------------------------------
 ===============================================[ Problem Statistics ]==================================================
|                                                                                                                       |
|  Number of cores:                 4                                                                                   |
|  Number of variables:          4128                                                                                   |
|  Number of clauses:           72259                                                                                   |
|  Parse time:                   0.08 s                                                                                 |
|                                                                                                                       |
 ==============================================[ Search Statistics ]====================================================
|   Thread  | Conflicts |          ORIGINAL         |          LEARNT          |  exported  / imported      |  Progress |
|    (id)   |           |    Vars  Clauses Literals |    Limit  Clauses Lit/Cl |  (clauses by restart)      |           |
 =======================================================================================================================
|         0 |       100 |    3233    60748   342741 |    22274       97      4 |           0  -           0 | 21.681 %  |
|         3 |       100 |    3233    60748   342741 |    26494      467      4 |        2681  -         368 | 21.681 %  |
|         2 |       100 |    3232    60748   342741 |    26494      544      4 |        2681  -         445 | 21.705 %  |
|         1 |       100 |    3232    60748   342741 |    26494      590      4 |        2681  -         490 | 21.705 %  |
|         0 |       250 |    3233    60748   342741 |    24501      619      4 |        2679  -         372 | 21.681 %  |
|         3 |       250 |    3232    60748   342741 |    29144     1041      4 |        2681  -         792 | 21.705 %  |
|         2 |       250 |    3232    60748   342741 |    29144     1104      4 |        2681  -         855 | 21.705 %  |
|         1 |       250 |    3232    60748   342741 |    29144     1114      4 |        2681  -         864 | 21.705 %  |
|         0 |       475 |    3232    60748   342741 |    26951     1609      4 |        2679  -        1137 | 21.705 %  |
|         2 |       475 |    3232    60748   342741 |    32058     1890      5 |        2681  -        1416 | 21.705 %  |
|         3 |       475 |    3232    60748   342741 |    32058     1961      5 |        2681  -        1487 | 21.705 %  |
|         1 |       475 |    3232    60748   342741 |    32058     2031      5 |        2681  -        1556 | 21.705 %  |
|         0 |       812 |    3232    60748   342741 |    29647     2992      5 |        2679  -        2183 | 21.705 %  |
|         2 |       812 |    3232    60748   342741 |    35264     3180      5 |        2681  -        2369 | 21.705 %  |
|         3 |       812 |    3232    60748   342741 |    35264     3259      5 |        2681  -        2448 | 21.705 %  |
|         1 |       812 |    3232    60748   342741 |    35264     3348      5 |        2681  -        2536 | 21.705 %  |
|         1 |      1318 |    3232    60748   342741 |    38791     4947      5 |        2681  -        3629 | 21.705 %  |
|         2 |      1318 |    3232    60748   342741 |    38791     5045      5 |        2681  -        3727 | 21.705 %  |
|         3 |      1318 |    3232    60748   342741 |    38791     5310      5 |        2681  -        3993 | 21.705 %  |
|         0 |      1318 |    3232    60748   342741 |    32611     5377      5 |        2679  -        4062 | 21.705 %  |
|         1 |      2077 |    3232    60748   342741 |    42670     7532      5 |        2681  -        5455 | 21.705 %  |
|         3 |      2077 |    3232    60748   342741 |    42670     7771      5 |        2681  -        5695 | 21.705 %  |
|         0 |      2077 |    3231    60748   342741 |    35872     8593      5 |        2679  -        6520 | 21.730 %  |
|         2 |      2077 |    3232    60748   342741 |    42670     8964      5 |        2683  -        6887 | 21.705 %  |
|         1 |      3216 |    3232    60748   342741 |    46937    10772      6 |        2687  -        7556 | 21.705 %  |
|         3 |      3216 |    3230    60748   342741 |    46937    11295      6 |        2683  -        8081 | 21.754 %  |
|         0 |      3216 |    3231    60748   342741 |    39460    13809      6 |        2693  -       10597 | 21.730 %  |
|         2 |      3216 |    3227    60748   342741 |    46937    14305      6 |        2689  -       11092 | 21.827 %  |
|         1 |      4924 |    3230    60748   342741 |    51631    15619      6 |        2697  -       10695 | 21.754 %  |
|         3 |      4924 |    3227    60748   342741 |    51631    15819      6 |        2691  -       10898 | 21.827 %  |
|         0 |      4924 |    3227    60748   342741 |    43406    20709      6 |        2694  -       15789 | 21.827 %  |
|         2 |      4924 |    3226    60748   342741 |    51631    21349      6 |        2689  -       16429 | 21.851 %  |
|         1 |      7486 |    3227    60569   341945 |    56794    22381      7 |        2698  -       14902 | 21.827 %  |
|         3 |      7486 |    3227    60569   341945 |    56794    22620      7 |        2692  -       15144 | 21.827 %  |
|         0 |      7486 |    3226    60554   341889 |    47746    29450      7 |        2695  -       21977 | 21.851 %  |
|         2 |      7486 |    3225    60554   341889 |    56794    30577      7 |        2693  -       23105 | 21.875 %  |
|         1 |     11330 |    3226    60569   341945 |    62473    31648      8 |        2703  -       20325 | 21.851 %  |
|         3 |     11330 |    3224    60521   341765 |    62473    31887      8 |        2693  -       20572 | 21.899 %  |
|         0 |     11330 |    3225    60554   341889 |    52521    39481      8 |        2699  -       28164 | 21.875 %  |
|         2 |     11330 |    3224    60554   341889 |    62473    41570     10 |        2693  -       30254 | 21.899 %  |
|         3 |     17096 |    3223    60521   341765 |    68721    44334     13 |        2693  -       27254 | 21.923 %  |
|         1 |     17096 |    3224    60521   341765 |    68721    44598     12 |        2705  -       27513 | 21.899 %  |
|         0 |     17096 |    3224    60521   341765 |    57773    54392     11 |        2701  -       37312 | 21.899 %  |
|         2 |     17096 |    3224    60521   341765 |    68721    54843     11 |        2695  -       37764 | 21.899 %  |
|         3 |     25745 |    3223    60521   341765 |    75593    60157     15 |        2693  -       34428 | 21.923 %  |
|         1 |     25745 |    3223    60521   341765 |    75593    62212     18 |        2705  -       36478 | 21.923 %  |
|         0 |     25745 |    3223    60521   341765 |    63551    39035     16 |        2701  -       42987 | 21.923 %  |
|         2 |     25745 |    3223    60521   341765 |    75593    38756     19 |        2695  -       48670 | 21.923 %  |
|         1 |     38719 |    3223    60499   341683 |    83152    44236     28 |        2705  -       48664 | 21.923 %  |
|         3 |     38719 |    3223    60499   341683 |    83152    43478     27 |        2693  -       47631 | 21.923 %  |
|         0 |     38719 |    3223    60499   341683 |    69906    63507     21 |        2701  -       54486 | 21.923 %  |
|         2 |     38719 |    3223    60499   341683 |    83152    62425     22 |        2695  -       59366 | 21.923 %  |
|         3 |     58180 |    3223    60499   341683 |    91467    78111     30 |        2693  -       62803 | 21.923 %  |
|         1 |     58180 |    3223    60499   341683 |    91467    82287     34 |        2705  -       67254 | 21.923 %  |
|         0 |     58180 |    3223    60499   341683 |    76896    57390     29 |        2701  -       66311 | 21.923 %  |
|         2 |     58180 |    3223    60499   341683 |    91467    46264     38 |        2695  -       74981 | 21.923 %  |
|         1 |     87372 |    3223    60499   341683 |   100614    71895     32 |        2705  -       87055 | 21.923 %  |
|         3 |     87372 |    3223    60499   341683 |   100614    74632     37 |        2693  -       87944 | 21.923 %  |
|         2 |     87372 |    3223    60499   341683 |   100614    34532     28 |        2695  -       95785 | 21.923 %  |
|         0 |     87372 |    3223    60499   341683 |    84586    71776     41 |        2701  -       92998 | 21.923 %  |
|         1 |    131161 |    3223    60499   341683 |   110676    82557     46 |        2705  -      119243 | 21.923 %  |
|         3 |    131161 |    3223    60499   341683 |   110676    83424     41 |        2693  -      117781 | 21.923 %  |
|         0 |    131161 |    3223    60499   341683 |    93045    29571     63 |        2701  -      118903 | 21.923 %  |
|         2 |    131161 |    3223    60499   341683 |   110676    35884     63 |        2695  -      130812 | 21.923 %  |
|         1 |    196845 |    3223    60499   341683 |   121743   110941     68 |        2705  -      153924 | 21.923 %  |
|         0 |    196845 |    3223    60499   341683 |   102349    57410     98 |        2701  -      151757 | 21.923 %  |
|         2 |    196845 |    3223    60499   341683 |   121743    44620     51 |        2695  -      164934 | 21.923 %  |
|         3 |    196845 |    3223    60499   341683 |   121743    47712     64 |        2693  -      170040 | 21.923 %  |
|         3 |    295371 |    3223    60499   341683 |   133918    98066     60 |        2693  -      215259 | 21.923 %  |
|         1 |    295371 |    3223    60499   341683 |   133918    98388     60 |        2705  -      221721 | 21.923 %  |
|         0 |    295371 |    3223    60499   341683 |   112584    79278     66 |        2701  -      214878 | 21.923 %  |
|         2 |    295371 |    3223    60499   341683 |   133918   112746     58 |        2695  -      226200 | 21.923 %  |
|         0 |    443160 |    3223    60499   341683 |   123843    94600    101 |        2701  -      261375 | 21.923 %  |
|         2 |    443160 |    3223    60499   341683 |   147309   104859     93 |        2695  -      291743 | 21.923 %  |
|         3 |    443160 |    3223    60499   341683 |   147309    92554     96 |        2693  -      293349 | 21.923 %  |
|         1 |    443160 |    3223    60499   341683 |   147309   107447     89 |        2705  -      308933 | 21.923 %  |
|         0 |    664843 |    3223    60499   341683 |   136227    39399    144 |        2701  -      381896 | 21.923 %  |
|         1 |    664843 |    3223    60499   341683 |   162040    69672     39 |        2705  -      417148 | 21.923 %  |
|         2 |    664843 |    3223    60499   341683 |   162040    85149     46 |        2695  -      426048 | 21.923 %  |
|         3 |    664843 |    3223    60499   341683 |   162040    97594     52 |        2693  -      434244 | 21.923 %  |
|         0 |    997368 |    3223    60499   341683 |   149850   105088     63 |        2701  -      537959 | 21.923 %  |
|         1 |    997368 |    3223    60499   341683 |   178244   158446     55 |        2705  -      583221 | 21.923 %  |
|         3 |    997368 |    3223    60499   341683 |   178244    28148     71 |        2693  -      589634 | 21.923 %  |
|         2 |    997368 |    3223    60499   341683 |   178244    67034     47 |        2695  -      616900 | 21.923 %  |
|         0 |   1496156 |    3223    60499   341683 |   164835   146985     79 |        2701  -      698433 | 21.923 %  |
|         3 |   1496156 |    3223    60499   341683 |   196069   131149    117 |        2693  -      777828 | 21.923 %  |
|         1 |   1496156 |    3223    60499   341683 |   196069   139911    105 |        2705  -      823055 | 21.923 %  |
|         2 |   1496156 |    3223    60499   341683 |   196069   148028     92 |        2695  -      916847 | 21.923 %  |
|         0 |   2244338 |    3223    60499   341683 |   181318   117253    187 |        2701  -      911162 | 21.923 %  |
|         1 |   2244338 |    3223    60499   341683 |   215676   117181    136 |        2705  -     1040930 | 21.923 %  |
|         3 |   2244338 |    3223    60499   341683 |   215676   137800    139 |        2693  -     1053395 | 21.923 %  |
|         2 |   2244338 |    3223    60499   341683 |   215676    42414     81 |        2695  -     1083613 | 21.923 %  |
|         0 |   3366612 |    3223    60499   341683 |   199450    96270    290 |        2701  -     1186762 | 21.923 %  |
|         2 |   3366612 |    3223    60499   341683 |   237243   186333     94 |        2695  -     1428584 | 21.923 %  |
|         3 |   3366612 |    3223    60499   341683 |   237243    23954    104 |        2693  -     1363681 | 21.923 %  |
|         1 |   3366612 |    3223    60499   341683 |   237243   143045     97 |        2705  -     1419656 | 21.923 %  |
 =======================================================================================================================
 -----------------------------------------------------------------------------------------------------------------------
| ManySAT 2.2 - all threads statistics           DETERMINISTIC MODE ? N              initial limit export clauses :  10 |
|-----------------------------------------------------------------------------------------------------------------------|
|  Thread  | winner  |   #restarts   |   decisions   |  #conflicts   |   % shared cls  |  #extra units | #extra clauses |         
|----------|---------|---------------|---------------|---------------|-----------------|---------------|----------------|
|        0 |       x |            25 |      10856404 |       4195359 |            34 % |          2701 |        1429951 |
|        1 |         |            25 |       9433459 |       3755168 |            40 % |          2705 |        1527886 |
|        2 |         |            25 |       8672856 |       3830420 |            41 % |          2695 |        1593023 |
|        3 |         |            25 |       9776250 |       3847972 |            38 % |          2693 |        1494457 |
|----------------------------------------------------|---------------|-----------------|---------------|----------------|
|                                                    |      15628919 |            38 % |         10794 |        6045317 |
 -----------------------------------------------------------------------------------------------------------------------
 DETERMINISTIC_MODE? : NO 
 CONTROL POLICY?	 : STATIC (fixed Limit Export Clauses)  
 LIMIT EXPORT CLAUSES (PAIRWISE) : [identity] x 10

  ----------------------------------------         
   winner:  more statistics           
  ----------------------------------------         
  restarts              : 25
  conflicts             : 4195359        (2938 /sec)
  decisions             : 10856404       (1.40 % random) (7603 /sec)
  propagations          : 482333782      (337772 /sec)
  conflict literals     : 546917184      (12.93 % deleted)
  Memory used           : 856.00 MB
  CPU time              : 1427.99 s

SATISFIABLE
